language ESSENCE' 1.0
letting shiftRequirements = [[4, 2, 2, 4], [5, 1, 2, 4], [4, 1, 3, 4], [4, 2, 2, 4], [4, 2, 2, 4], [6, 2, 1, 3], [6, 2, 1, 3]]
letting numberOfWeeks = 12
letting s_min = 3
letting s_max = 4
